25 52
378 963 2
803 1983 1
580 1257 1
1257 1410 2
310 858 5
502 1922 4
489 1164 3
448 910 1
607 858 1
557 718 1
233 1088 1
657 2145 4
657 681 4
688 743 1
273 1464 4
248 1194 2
393 1114 2
858 1779 1
478 1114 3
465 1874 2
373 1494 2
448 824 1
695 1954 1
245 1954 1
585 1724 2
3000 6000 
3000 6000 
3000 6000 
3000 6000 
3000 6000 
3000 6000 
3000 6000 
3000 6000 
3000 6000 
3000 6000 
3000 6000 
3000 6000 
3000 6000 
3000 6000 
3000 6000 
3000 6000 
3000 6000 
3000 6000 
3000 6000 
3000 6000 
3000 6000 
3000 6000 
3000 6000 
3000 6000 
3000 6000 
3000 6000 
3000 6000 
3000 6000 
3000 6000 
3000 6000 
3000 6000 
3000 6000 
3000 6000 
3000 6000 
3000 6000 
3000 6000 
3000 6000 
3000 6000 
3000 6000 
3000 6000 
3000 6000 
3000 6000 
3000 6000 
3000 6000 
3000 6000 
3000 6000 
3000 6000 
3000 6000 
3000 6000 
3000 6000 
3000 6000 
3000 6000 
